Test: battleship-16-16-unsat.cnf
Options: -no-inverting-opt
WARNING: for repeatability, setting FPU to use double precision
============================[ Problem Statistics ]=============================
|                                                                             |
|  Number of symmetries:           17                                         |
|  Number of invertingSyms:         0                                         |
|  Number of variables:           256                                         |
|  Number of clauses:            2176                                         |
|  Parse time:                   0.00 s                                       |
|                                                                             |
============================[ Search Statistics ]==============================
| Conflicts |          ORIGINAL         |          LEARNT          | Progress |
|           |    Vars  Clauses Literals |    Limit  Clauses Lit/Cl |          |
===============================================================================
|       100 |     256     2176     7936 |      797      153    109 |  0.002 % |
|       250 |     256     2176     7936 |      877      317     84 |  0.002 % |
|       475 |     256     2176     7936 |      965      547     78 |  0.002 % |
|       812 |     256     2176     7936 |     1061      908     70 |  0.002 % |
|      1318 |     256     2176     7936 |     1168      975     58 |  0.002 % |
|      2077 |     256     2176     7936 |     1284     1163     61 |  0.002 % |
|      3216 |     256     2176     7936 |     1413     1017     56 |  0.002 % |
|      4924 |     256     2176     7936 |     1554     1420     60 |  0.002 % |
|      7486 |     256     2176     7936 |     1710      872     66 |  0.002 % |
|     11330 |     256     2176     7936 |     1881     1260     69 |  0.002 % |
|     17096 |     256     2176     7936 |     2069     1216     70 |  0.002 % |
|     25745 |     256     2176     7936 |     2276     1746     75 |  0.002 % |
|     38719 |     256     2176     7936 |     2504     1486     67 |  0.002 % |
|     58180 |     256     2176     7936 |     2754     1882     55 |  0.002 % |
|     87372 |     256     2176     7936 |     3029     2439     63 |  0.002 % |
|    131161 |     256     2176     7936 |     3332     2550     61 |  0.002 % |
|    196845 |     256     2176     7936 |     3666     1931     59 |  0.002 % |
|    295371 |     256     2176     7936 |     4032     2289     73 |  0.002 % |
|    443160 |     256     2176     7936 |     4436     3697     72 |  0.002 % |
|    664843 |     256     2176     7936 |     4879     2900     49 |  0.002 % |
===============================================================================
restarts              : 2046
conflicts             : 987649         (25224 /sec)
symconflicts          : 5861           (150 /sec)
decisions             : 1476236        (0.00 % random) (37703 /sec)
propagations          : 27953465       (713928 /sec)
sympropagations       : 62635          (1600 /sec)
conflict literals     : 62998610       (7.84 % deleted)
literals     : 62998610       (7.84 % deleted)

HEURISTIC USAGES
random                : 0           
activity w/ lookahead : 0           
activity no lookahead : 0           
original sp           : 1476236     
sym count             : 0           

Memory used           : 10.00 MB
CPU time              : 39.1544 s

UNSATISFIABLE
